100
[10,11,12,13,14,15,16,17,18,19,20,21,22,23,24,25,26,27,28,29,30,31,32,33,34,35,36,37,38,39,40,41,42,43,44,45,46,47,48,49,50,51,52,53,54,55,56,57,58,59,60,61,62,63,64,65,66,67,68,69,70,71,72,73,74,75,76,77,78,79,80]
[4,3,8,3,8,5,5,8,4,2,4,2,4,2,5,6,7,7,4,5,6,2,2,4,3,2,5,5,4,5,1,3,2,4,4,3,6,3,3,5,4,5,3,4,8,6,4,4,2,3,3,2,4,3,4,3,4,2,2,8,8,3,6,4,4,12,2,3,2,2,8]
